NAME : kroA150
TYPE : OP
DIMENSION : 150
COST_LIMIT : 13262
ROUTE_NODES : 86
ROUTE_SCORE : 86
ROUTE_COST : 13246
NODE_SEQUENCE_SECTION
1
130
142
105
67
108
61
25
81
69
64
144
114
44
50
116
82
126
95
13
76
33
146
103
37
5
52
78
96
101
121
30
107
112
132
29
46
3
43
123
115
120
149
55
83
117
9
7
57
20
12
27
86
150
62
60
77
110
23
98
91
109
32
11
15
17
21
74
141
59
127
36
99
102
111
104
38
24
18
137
79
106
90
49
6
63
-1
DEPOT_SECTION
1
-1
EOF
